 &GLOBAL
  PRINT_LEVEL LOW
  PROJECT BioBB_CP2K_Molecular_Dynamics
  RUN_TYPE MD
 &END GLOBAL
 &FORCE_EVAL
  METHOD QS
  &DFT
   BASIS_SET_FILE_NAME BASIS_MOLOPT
   POTENTIAL_FILE_NAME GTH_POTENTIALS
   CHARGE 0
   MULTIPLICITY 1
   &MGRID
    NGRIDS 4
    CUTOFF 300
    REL_CUTOFF 60
   &END MGRID
   &QS
    EPS_DEFAULT 1.0E-12
    METHOD GPW
    WF_INTERPOLATION PS
    EXTRAPOLATION_ORDER 3
   &END QS
   &SCF
    SCF_GUESS RESTART
    EPS_SCF 5.e-7
    MAX_SCF 15
    &OT
     PRECONDITIONER FULL_ALL
     MINIMIZER DIIS
    &END OT
    &OUTER_SCF
     EPS_SCF 5.0E-7
     MAX_SCF 1
    &END OUTER_SCF
   &END SCF
   &XC
    &XC_FUNCTIONAL PBE
    &END XC_FUNCTIONAL
    &XC_GRID
     ! defaults
     XC_SMOOTH_RHO NONE
     XC_DERIV PW
    &END XC_GRID
   &END XC
  &END DFT
  &SUBSYS
   &CELL
    ABC 9.8528 9.8528 9.8528
    PERIODIC XYZ
   &END CELL
   &COORD
    O 2.200000 9.100000 5.100000
    H 1.800000 9.800000 5.500000
    H 3.100000 9.100000 5.600000
   &END COORD
   &KIND H
    BASIS_SET DZVP-MOLOPT-SR-GTH-q1
    POTENTIAL GTH-PBE-q1
   &END KIND
   &KIND O
    BASIS_SET DZVP-MOLOPT-SR-GTH-q6
    POTENTIAL GTH-PBE-q6
   &END KIND
   &KIND N
    BASIS_SET DZVP-MOLOPT-SR-GTH-q5
    POTENTIAL GTH-PBE-q5
   &END KIND
   &KIND C
    BASIS_SET DZVP-MOLOPT-SR-GTH-q4
    POTENTIAL GTH-PBE-q4
   &END KIND
  &END SUBSYS
  &PRINT
   &FORCES
   &END FORCES
  &END PRINT
 &END FORCE_EVAL
 &MOTION
  &MD
   ENSEMBLE NVE
   STEPS 100
   TIMESTEP 0.5
   TEMPERATURE 300.0
  &END MD
 &END MOTION
