 &GLOBAL
  PRINT_LEVEL LOW
  PROJECT BioBB_CP2K_Energy_Forces_Calculation
  RUN_TYPE ENERGY_FORCE
 &END GLOBAL
 &FORCE_EVAL
  METHOD QS
  &DFT
   BASIS_SET_FILE_NAME BASIS_MOLOPT
   POTENTIAL_FILE_NAME GTH_POTENTIALS
   CHARGE 0
   MULTIPLICITY 1
   &MGRID
    NGRIDS 4
    CUTOFF 300
    REL_CUTOFF 60
   &END MGRID
   &QS
    EPS_DEFAULT 1.0E-12
    METHOD GPW
   &END QS
   &SCF
    SCF_GUESS ATOMIC
    EPS_SCF 5.e-7
    MAX_SCF 15
    &OT
     PRECONDITIONER FULL_ALL
     MINIMIZER DIIS
    &END OT
    &OUTER_SCF
     EPS_SCF 5.0E-7
     MAX_SCF 1
    &END OUTER_SCF
   &END SCF
   &XC
    &XC_FUNCTIONAL PBE
    &END XC_FUNCTIONAL
    &XC_GRID
     ! defaults
     XC_SMOOTH_RHO NONE
     XC_DERIV PW
    &END XC_GRID
   &END XC
  &END DFT
  &SUBSYS
   &CELL
    ABC 15.419 15.334 15.943
    PERIODIC XYZ
   &END CELL
   &COORD
    O    2.280    9.146    5.088
    H    1.762    9.820    5.528
    H    3.095    9.107    5.588
    O    1.251    2.406    7.769
    H    0.554    2.982    8.082
    H    1.771    2.954    7.182
    O    1.596    6.920    0.656
    H    2.112    6.126    0.798
    H    1.776    7.463    1.424
    O    2.957    3.771    1.877
    H    3.754    3.824    1.349
    H    3.010    4.524    2.466
    O    0.228    5.884    6.532
    H    0.939    5.243    6.571
    H    0.515    6.520    5.877
    O    9.023    6.119    0.092
    H    9.852    6.490    0.393
    H    8.556    6.860   -0.294
    O    7.256    8.493    5.772
    H    7.886    7.941    6.234
    H    7.793    9.141    5.315
    O    5.090    9.467    0.743
    H    4.467    9.971    0.219
    H    5.758   10.102    0.998
    O    6.330    7.363    3.747
    H    6.652    7.917    3.036
    H    6.711    7.743    4.539
    O    7.763    8.349    9.279
    H    7.751    8.745   10.150
    H    7.829    9.092    8.679
    O    8.280    3.837    5.799
    H    8.312    3.218    6.528
    H    8.508    4.680    6.189
    O    8.878    2.025    1.664
    H    9.742    1.704    1.922
    H    8.799    2.876    2.095
    O    9.160    0.285    6.871
    H    9.505    1.161    6.701
    H    9.920   -0.219    7.161
    O    4.962    4.134    0.173
    H    4.749    4.186   -0.758
    H    5.248    5.018    0.403
    O    2.802    8.690    2.435
    H    3.576    9.078    2.026
    H    2.720    9.146    3.273
    O    9.123    3.549    8.876
    H    9.085    4.493    9.031
    H    9.215    3.166    9.749
    O    1.453    1.402    2.358
    H    1.999    2.060    1.927
    H    1.824    0.564    2.081
    O    6.536    1.146    7.609
    H    7.430    0.849    7.438
    H    6.576    1.537    8.482
    O    2.766    0.881    9.544
    H    2.415    1.576    8.987
    H    2.276    0.099    9.289
    O    0.856    2.075    5.010
    H    1.160    1.818    4.140
    H    0.350    2.874    4.860
    O    6.386    1.918    0.242
    H    5.768    2.638    0.375
    H    7.221    2.257    0.563
    O    2.733    4.452    5.850
    H    3.260    5.243    5.962
    H    3.347    3.732    5.988
    O    4.600    9.254    6.575
    H    5.328    9.073    5.982
    H    5.007    9.672    7.334
    O    3.665    6.210    3.158
    H    4.566    6.413    3.408
    H    3.273    7.061    2.963
    O    3.371    6.925    7.476
    H    3.878    7.435    6.843
    H    3.884    6.966    8.283
    O    5.287    3.270    6.155
    H    5.918    3.116    5.451
    H    5.355    2.495    6.711
    O    5.225    6.959    9.582
    H    5.071    7.687   10.185
    H    6.106    7.112    9.241
    O    0.846    5.595    3.820
    H    1.637    5.184    4.169
    H    0.427    4.908    3.301
    O    9.785    8.164    3.657
    H    9.971    7.227    3.709
    H   10.647    8.579    3.629
    O    8.509    4.430    2.679
    H    8.046    5.126    2.213
    H    7.995    4.290    3.474
    O    1.337    8.580    8.272
    H    1.872    7.864    7.930
    H    0.837    8.186    8.987
    O    8.054    9.221    1.991
    H    8.314   10.115    2.212
    H    8.687    8.667    2.448
   &END COORD
   &KIND H
    BASIS_SET DZVP-MOLOPT-SR-GTH-q1
    POTENTIAL GTH-PBE-q1
   &END KIND
   &KIND O
    BASIS_SET DZVP-MOLOPT-SR-GTH-q6
    POTENTIAL GTH-PBE-q6
   &END KIND
   &KIND N
    BASIS_SET DZVP-MOLOPT-SR-GTH-q5
    POTENTIAL GTH-PBE-q5
   &END KIND
   &KIND C
    BASIS_SET DZVP-MOLOPT-SR-GTH-q4
    POTENTIAL GTH-PBE-q4
   &END KIND
  &END SUBSYS
  &PRINT
   &FORCES
   &END FORCES
  &END PRINT
 &END FORCE_EVAL
